\ LP format - for model browsing. Use MPS format to capture full model detail.
Maximize
  + 300 Constant
Subject To
 R0: 500 g + 750 z <= 100000
 R1: - 4 g + z >= 0
 R2: g >= 10
Bounds
 g >= 10
 Constant = 1
Generals
 g z
End
